52	0

0	3	2	3	4
8	4	6	7	8	10
1	1	5
9	3	6	7	10
3	4	6	7	8	9
10	3	11	13	14
8	2	11	12
9	2	11	12
6	2	10	12
8	3	11	13	14
6	1	15
3	2	13	14
8	1	16
3	1	15
3	1	16
3	1	17
1	2	18	20
6	4	19	21	22	24
9	2	23	28
9	3	21	22	23
10	1	25
8	3	25	26	28
3	2	25	26
10	3	25	26	28
2	1	27
8	3	29	30	31
5	3	29	30	31
10	2	31	33
8	3	32	35	36
5	2	32	33
5	3	32	35	36
6	2	34	37
8	3	34	35	36
9	1	39
6	1	38
2	1	37
4	1	38
3	1	39
8	1	40
2	3	41	42	43
9	2	44	47
5	2	44	45
6	2	44	45
9	1	46
8	2	46	47
4	1	48
7	1	48
4	1	49
10	1	50
2	1	51
8	1	52
0	0
